5 5
7 5 5 12 3 17 2 11 1 3 4 19 5 4 12 3 18 1 17 5 19 2 5 1 3 2 4 2 20 1 13 3 8 4 11 4 3 12 5 4 4 11 2 13 1 4 15 2 2 13 5 15
4 1 2 7 1 3 8 3 2 16 5 18 3 14 3 1 8 3 13 5 16
6 2 3 2 4 5 4 3 11 4 3 1 15 5 16 1 4 18 2 2 3 4 2 5 1 9 5 2 4 19 3 19 2 9 4 3 3 2 15 4 11 5 10
6 1 3 7 5 5 18 2 14 3 17 1 11 4 13 2 2 8 3 8 4 1 14 5 7 4 16 3 7 1 5 2 1 2 15
7 3 3 6 4 8 1 13 2 1 17 5 8 5 1 11 3 9 4 2 5 17 2 5 2 4 2 1 4 1 3 17 2 3 8 1 11 1 5 6